575,460
708,491
841,487
778,336
764,150
653,229
778,336
769,420
801,776
629,478
841,487
746,820
558,575
453,480
488,672
334,583
368,507
326,350
629,478
593,420
463,248
311,286
382,-6
311,526
334,583
1006,355
1191,406
1006,355
972,195
723,140
570,64
681,196
723,140
841,325
914,173
820,-21
1036,350
1191,406
769,420
681,436
558,575
593,420
622,397
871,32
417,42
254,267
168,572
200,651
168,572
368,507
